3 
4 
5  15 31 46 
6  01 17 27 32 37 42 47 52 57 
7  02 07 12 17 22 27 32 37 42 47 52 57 
8  02 07 12 17 22 27 32 37 42 47 52 57 
9  02 07 12 17 22 27 32 37 42 48 54 
10  02 09 17 24 32 39 47 54 
11  02 09 17 24 32 39 47 54 
12  02 09 17 24 32 39 47 54 
13  02 09 17 24 31 39 47 54 
14  02 09 17 24 31 39 47 54 
15  02 07 12 16 22 27 32 37 42 46 52 57 
16  01 07 12 16 22 27 31 37 42 46 52 57 
17  01 07 12 16 22 27 31 37 42 46 52 57 
18  02 07 12 17 22 27 32 37 42 47 52 58 
19  04 10 17 24 32 39 47 54 
20  02 08 15 23 31 38 49 
21  04 11 19 34 49 
22  04 14 29 44 
23  00 14 
0 
